
  24    0


   0  13 2 4 6 7 8 9 10 11 12 13 21 22 23 
   8   4 20 19 15 3 
   3   3 17 16 5 
   7   2 18 14 
  10   1 14 
  10   1 15 
   9   1 16 
   4   1 15 
   4   1 14 
  10   1 14 
   1   1 14 
   6   1 14 
   1   1 14 
   1   1 24
  10   1 24
   4   1 24
   4   1 24
   7   1 24
   6   1 24
  10   1 24
   4   1 24
   7   1 24
   7   1 24
   0   0 
